# PSI4 Calc: name

memory 48gb

molecule complex {
0 1
O         -2.59997        1.43514       -0.00941
C         -1.49529        0.91037       -0.00522
C         -1.36911       -0.56490       -0.00166
C         -0.14295       -1.08333        0.00136
C          0.23495       -2.48778        0.00659
C          1.58150       -2.49414        0.00632
N          2.08446       -1.21170        0.00136
H          3.07051       -0.99110        0.00138
C          1.07818       -0.28165        0.00136
C          1.08688        1.04876        0.00275
C         -0.20917        1.75331       -0.00185
O         -0.24946        2.97593       -0.00160
H         -2.28005       -1.14708       -0.00290
H         -0.42827       -3.33619        0.01102
H          2.24720       -3.34637        0.01047
H          1.98644        1.64666        0.00817
--
-1 1
H          6.91856        0.34190        1.08330
O          4.80867       -1.76396        0.09917
C          6.71256       -0.27224        0.18229
C          5.20071       -0.56454        0.09495
H          7.29629       -1.21141        0.22972
O          4.44999        0.49380        0.01890
H          7.02931        0.32435       -0.69830
units angstrom
no_reorient
symmetry c1
}

set sapt {
    print 1
}

set globals {
    scf_type df
    basis aug-cc-pVDZ
    guess sad
}
energy('sapt2+')
